ITEM: TIMESTEP
1400003
ITEM: NUMBER OF ATOMS
96
ITEM: BOX BOUNDS ff ff ff
-0.002 0.042
-0.004 0.024
-0.0045 0.0045
ITEM: ATOMS id type x y z vx vy vz radius 
44 1 0.0071691 0.00140878 -0.000717224 -26.6578 -0.764477 -8.38486 0.0013 
74 1 0.0120578 0.00120343 -0.00327135 -0.000174643 0.000279766 0.000163115 0.0013 
18 1 0.0155017 0.00124959 -0.00135298 -6.22809e-06 0.000228834 0.000291211 0.0013 
71 1 0.0191737 0.00130516 -0.00292584 8.17811 1.35864 -0.786635 0.0013 
16 2 0.0212532 0.00179416 -0.000153902 5.83876e-05 2.2579e-05 0.00022517 0.0018 
54 1 0.0217337 0.00214041 -0.00319844 2.84829 -1.27442 0.167691 0.0013 
11 2 0.0244813 0.00178693 -0.00173034 3.15454e-05 -1.92159e-06 -0.000101806 0.0018 
20 1 0.027428 0.00129887 -0.00255615 9.53316e-05 -8.12033e-05 1.50384e-05 0.0013 
45 1 0.0307868 0.00116039 -0.000755665 7.35037e-06 -1.37839e-05 -2.35024e-06 0.0013 
81 1 0.0309971 0.00127734 -0.00325551 1.60085e-05 -5.90764e-06 -2.98971e-07 0.0013 
96 1 0.0349494 0.00130384 -0.00237642 -9.67673 3.22932 -64.7752 0.0013 
38 1 0.0380527 0.00129999 -0.00252615 -3.59564 -0.0337262 -7.3337 0.0013 
8 2 0.00298261 0.00297556 -0.00150769 6.32783e-05 -2.24096e-05 -2.52867e-05 0.003 
72 1 0.00782351 0.00234015 -0.00317111 30.9592 37.5926 2.11447 0.0013 
5 2 0.0117427 0.00436612 -0.000559235 0.000134025 0.000173275 0.00117693 0.003 
93 1 0.0146729 0.00277611 -0.00322699 -0.000233063 0.000429793 0.000196472 0.0013 
4 2 0.01769 0.00487684 -0.00103208 0.000134877 0.000310192 0.000356329 0.003 
56 1 0.0222733 0.00471433 -0.000351019 -2.6988 0.551994 -5.78853 0.0013 
92 1 0.0212699 0.0047648 -0.00324523 0.00022623 -5.11879e-05 0.000243146 0.0013 
89 1 0.0236422 0.00414227 -0.00331487 0.000101151 -3.0569e-05 -7.32273e-05 0.0013 
62 1 0.0289715 0.0032862 -0.00320068 4.73439e-05 -6.09291e-05 -1.81168e-05 0.0013 
2 2 0.0326174 0.00481892 -0.00151574 6.25891e-06 -8.2726e-06 -2.75898e-06 0.003 
78 1 0.038675 0.00373583 -0.00318889 -2.54373 1.56292 0.755735 0.0013 
60 1 0.0385147 0.00392501 -0.000477352 -12.5091 33.1753 12.8233 0.0013 
91 1 0.00131093 0.00666581 -0.00319997 -0.115543 1.45148 0.0860082 0.0013 
61 1 0.0023476 0.00721134 -0.000791242 -12.1365 -8.61694 3.30873 0.0013 
3 2 0.00666601 0.00751911 -0.000314686 -0.000120969 -2.00015e-05 0.000668183 0.003 
25 1 0.0143665 0.00649556 -0.00320612 -4.24817e-05 0.000217436 0.00010689 0.0013 
58 1 0.0204767 0.00718704 -0.00324174 0.000254743 -5.27458e-05 0.000191418 0.0013 
86 1 0.0211763 0.00725257 -0.00076142 0.000244781 0.000156418 0.00011047 0.0013 
6 2 0.0253244 0.0075146 -0.00150644 1.71377e-05 6.20768e-07 1.94166e-06 0.003 
63 1 0.0288635 0.00588229 -0.00321669 9.81128e-06 -5.43368e-06 2.18201e-06 0.0013 
40 1 0.0362863 0.00632055 -0.00319322 -2.12337 6.93036 0.666308 0.0013 
37 1 0.0386982 0.00614304 -0.00220558 -0.208758 2.58704 -1.63069 0.0013 
83 1 0.00203845 0.00917981 -0.00245913 28.505 18.7398 12.6391 0.0013 
88 1 0.00927783 0.00921923 -0.00322318 0.000566174 1.50025e-05 0.000608584 0.0013 
10 2 0.0122535 0.00869152 -0.00270347 0.000559913 0.000413403 -2.58243e-05 0.0018 
28 1 0.0106263 0.00919167 -4.81455e-05 0.526796 0.612433 1.82268 0.0013 
34 1 0.0142586 0.00922572 -0.000459743 0.000403169 0.000208229 -6.0203e-05 0.0013 
94 1 0.0152919 0.0090448 -0.00320109 0.000536675 0.000966028 -0.00027577 0.0013 
47 1 0.0167783 0.00907901 -0.00107091 0.000584423 0.000640412 9.71618e-05 0.0013 
67 1 0.0182243 0.00920343 -0.00321212 0.000551648 0.000156598 -2.48026e-05 0.0013 
80 1 0.0195045 0.00920632 -0.000969646 0.00033868 0.000155936 -0.000224219 0.0013 
84 1 0.0218485 0.00926532 -0.00321299 4.82563e-05 -8.44792e-06 1.54531e-06 0.0013 
12 2 0.0299015 0.00869449 -0.00241253 0.593203 3.34588 -5.349 0.0018 
19 1 0.0379168 0.00919456 -0.00317375 111.73 -1.17071 1.01211 0.0013 
77 1 0.00130996 0.00180321 0.00241482 0.785484 8.32255 10.7923 0.0013 
39 1 0.0038011 0.00157268 0.00317606 -4.1728 12.1973 4.10815 0.0013 
17 1 0.00573933 0.00132558 0.00145247 1.22671 -1.43622 11.4938 0.0013 
66 1 0.00923355 0.00130464 0.00162911 -44.2095 0.927571 -24.7664 0.0013 
59 1 0.0141749 0.00122592 0.000815351 0.000315044 1.67045e-05 0.00012275 0.0013 
32 1 0.0166931 0.00127569 0.0010583 6.74818e-05 5.01091e-05 0.000262813 0.0013 
21 1 0.0148827 0.00126998 0.00323659 3.12974e-05 -8.53872e-05 0.000159861 0.0013 
95 1 0.0190781 0.00127999 0.00194584 0.000112423 -7.93518e-05 0.000169841 0.0013 
52 1 0.0242898 0.00125972 0.00322112 8.75454e-05 2.39079e-05 8.62499e-05 0.0013 
51 1 0.0315902 0.00155527 0.00307749 -4.97011 -20.6368 -2.62068 0.0013 
73 1 0.0342863 0.00130033 0.00320012 -3.96335 -0.78929 -0.0774895 0.0013 
79 1 0.0330298 0.00130163 0.000923946 -0.721675 0.248738 -1.23014 0.0013 
43 1 0.0383285 0.00130282 0.00310492 -8.03877 -2.21416 3.21794 0.0013 
82 1 0.00130219 0.00443984 0.00307318 1.53771 9.2777 -0.747953 0.0013 
35 1 0.00378055 0.00492569 0.0024364 -5.99007 35.3962 -24.6662 0.0013 
31 1 0.0085088 0.00448074 0.00299239 -45.7143 12.6398 -14.423 0.0013 
48 1 0.0128836 0.00285113 0.0032411 0.00066464 -0.000189487 0.000282051 0.0013 
75 1 0.0150116 0.00393568 0.00221385 0.00845085 0.13721 0.160819 0.0013 
70 1 0.0170197 0.00262701 0.00322139 0.000173432 -9.43512e-05 7.58451e-05 0.0013 
41 1 0.0194158 0.00345031 0.00322537 9.67159e-05 -0.000116153 5.46377e-05 0.0013 
46 1 0.0174707 0.00515721 0.00322356 -0.000236166 0.00010979 0.000112106 0.0013 
13 2 0.0224349 0.0036303 0.0027032 0.000241998 -7.34736e-05 8.94468e-05 0.0018 
1 2 0.0277909 0.00298463 0.00151803 -2.71813e-07 -1.14458e-06 8.42786e-07 0.003 
87 1 0.0331357 0.00364217 0.00284226 25.5108 -32.4075 4.2901 0.0013 
57 1 0.036297 0.00293529 0.0029452 9.41474 -20.1582 -7.32154 0.0013 
55 1 0.0387001 0.00390126 0.003174 -0.615698 0.225118 -2.84099 0.0013 
76 1 0.00144438 0.00709819 0.00319407 4.20401 19.7402 -0.270075 0.0013 
68 1 0.00400689 0.00775772 0.00318977 -13.0865 -44.0257 -1.39573 0.0013 
29 1 0.0101129 0.00659592 0.00316605 -9.25317 -4.32137 9.71786 0.0013 
15 2 0.0129343 0.00816834 0.00210919 0.000464489 0.000492038 0.000482767 0.0018 
85 1 0.0153546 0.00661791 0.00321624 9.02397e-05 0.000379175 0.000268345 0.0013 
23 1 0.0158429 0.00802721 0.00110192 0.000177016 0.000486222 2.09785e-05 0.0013 
24 1 0.0177359 0.00772017 0.0032143 -0.000403219 1.01445e-05 -8.11135e-06 0.0013 
27 1 0.0199918 0.00760791 0.00144555 -0.000227948 7.72611e-05 -0.000202922 0.0013 
36 1 0.0203177 0.00581731 0.00321543 -6.52886e-05 -0.000221536 -0.000234414 0.0013 
14 2 0.0230284 0.00717625 0.0026934 -0.000328618 2.13837e-05 -0.000165685 0.0018 
64 1 0.0259808 0.00646888 0.00321501 -9.92453e-05 9.89253e-05 7.84326e-05 0.0013 
50 1 0.0276609 0.00840061 0.00320245 -0.000147975 -4.7535e-05 -7.07395e-05 0.0013 
42 1 0.0307553 0.00584102 0.0030677 9.75923 -19.3584 44.818 0.0013 
7 2 0.0370159 0.00750875 0.0015122 -2.41625e-07 -8.81245e-08 -7.76668e-07 0.003 
26 1 0.00194792 0.00916031 0.00161675 13.8197 -3.06781 -31.6555 0.0013 
90 1 0.0077897 0.00926189 0.00330435 -0.00067217 0.00014408 0.000285296 0.0013 
69 1 0.0103086 0.00922712 0.00323252 0.000137949 3.5927e-05 -1.03108e-05 0.0013 
30 1 0.015567 0.00924442 0.00325432 0.000175917 0.000337963 -3.77251e-05 0.0013 
33 1 0.0180673 0.00923922 0.00117293 -0.000146461 -5.70395e-06 -0.000169456 0.0013 
49 1 0.0208084 0.00923453 0.00322372 -0.000473562 -2.40558e-05 -2.10232e-05 0.0013 
22 1 0.0219511 0.00922794 0.000673003 4.14614e-05 6.33658e-05 -0.000353543 0.0013 
53 1 0.0252438 0.0092297 0.00320604 -0.000321794 5.41926e-05 -5.49577e-05 0.0013 
9 2 0.0323759 0.00870359 0.00128406 -2.17494e-06 -4.44436e-06 3.29418e-06 0.0018 
65 1 0.0300711 0.00921432 0.00322706 -4.45586e-05 2.54448e-05 -1.81912e-05 0.0013 
